
Gurobi 11.0.2 (linux64) logging started Tue 03 Dec 2024 09:06:06 AM CET

Set parameter LogFile to value "./res/knapPI_11_50_1000/knapPI_11_50_1000_69/grb_dom.log"
Set parameter Presolve to value 0
Set parameter Aggregate to value 0
Set parameter Heuristics to value 0
Set parameter LPWarmStart to value 0
Set parameter NLPHeur to value 0
Set parameter PreDepRow to value 0
Set parameter PreDual to value 0
Set parameter RINS to value 0
Set parameter Symmetry to value 0
Set parameter NodeLimit to value 1
Set parameter Threads to value 1

Gurobi 11.0.2 (linux64) logging started Tue 03 Dec 2024 09:06:06 AM CET

Set parameter LogFile to value "./res/knapPI_11_50_1000/knapPI_11_50_1000_69/grb_dom.log"
Set parameter NLPHeur to value 0
Set parameter LPWarmStart to value 0
Set parameter PreDepRow to value 0
Set parameter Symmetry to value 0
Set parameter Presolve to value 0
Gurobi Optimizer version 11.0.2 build v11.0.2rc0 (linux64 - "Pop!_OS 20.04 LTS")

CPU model: Intel(R) Core(TM) i7-8650U CPU @ 1.90GHz, instruction set [SSE2|AVX|AVX2]
Thread count: 4 physical cores, 4 logical processors, using up to 1 threads

Optimize a model with 9130 rows, 50 columns and 81428 nonzeros
Model fingerprint: 0xa7b1b923
Variable types: 0 continuous, 50 integer (50 binary)
Coefficient statistics:
  Matrix range     [1e+00, 1e+03]
  Objective range  [5e+00, 1e+03]
  Bounds range     [0e+00, 0e+00]
  RHS range        [2e+04, 2e+04]
Variable types: 0 continuous, 50 integer (50 binary)

Root relaxation: objective 1.755201e+04, 43 iterations, 0.07 seconds (0.02 work units)

    Nodes    |    Current Node    |     Objective Bounds      |     Work
 Expl Unexpl |  Obj  Depth IntInf | Incumbent    BestBd   Gap | It/Node Time

     0     0 17552.0148    0    1          - 17552.0148      -     -    0s
     0     0 17552.0148    0    2          - 17552.0148      -     -    0s
     0     0 17552.0148    0    1          - 17552.0148      -     -    0s
     0     0 17552.0148    0    1          - 17552.0148      -     -    0s
     0     0 17552.0148    0    1          - 17552.0148      -     -    0s
     0     0 17552.0148    0    4          - 17552.0148      -     -    0s
     0     0 17552.0148    0    3          - 17552.0148      -     -    0s
     0     0 17552.0148    0    3          - 17552.0148      -     -    0s
     0     0 17552.0148    0    4          - 17552.0148      -     -    1s
     0     0 17552.0148    0    3          - 17552.0148      -     -    1s
     0     2 17552.0148    0    3          - 17552.0148      -     -    1s

Cutting planes:
  Cover: 2

Explored 1 nodes (58 simplex iterations) in 1.30 seconds (0.65 work units)
Thread count was 1 (of 4 available processors)

Solution count 0

Node limit reached
Best objective -, best bound 1.755200000000e+04, gap -

User-callback calls 956, time in user-callback 0.01 sec
opt = false
obj = 17552.0148
nb_dom_cuts = 9129
solved_time = 1.2995
opt_val = 17445.0
